/*********************************************
 * OPL 12.7.0.0 Data
 * Author: Administrator
 * Creation Date: 2018年11月13日 at 上午11:26:48
 *********************************************/
nbmonths=2;
fc=100;
h=1;
p=10;
meandemand=[60, 40];
std_demand=[15, 10];
initialstock=0;

/* Use an even number of partitions */
//nbpartitions = 2;
//prob = [0.5, 0.5];
//means = [-0.797885, 0.797885];

nbpartitions = 4;
prob = [0.187555,0.312445,0.312445,0.187555];
means = [-1.43535,-0.415223,0.415223,1.43535];
error = 0.0339052;

//nbpartitions = 10;
//prob = [0.04206108420763477, 0.0836356495308449, 0.11074334596058821, 0.1276821455299152, 0.13587777477101692, 0.13587777477101692, 0.1276821455299152, 0.11074334596058821, 0.0836356495308449, 0.04206108420763477];
//means = [-2.133986195498256, -1.3976822972668839, -0.918199946431143, -0.5265753462727588, -0.17199013069262026, 0.17199013069262026, 0.5265753462727588, 0.918199946431143, 1.3976822972668839, 2.133986195498256];
//error = 0.005885974956458359;